p edge 83 401
e 1 18
e 1 20
e 1 21
e 1 38
e 1 53
e 1 56
e 1 66
e 1 69
e 1 73
e 1 78
e 2 8
e 2 9
e 2 12
e 2 14
e 2 28
e 2 31
e 2 33
e 2 36
e 2 43
e 2 46
e 2 54
e 2 73
e 2 77
e 2 79
e 3 24
e 3 28
e 3 32
e 3 60
e 3 68
e 3 83
e 4 8
e 4 12
e 4 49
e 4 50
e 4 52
e 4 65
e 4 69
e 4 83
e 5 32
e 5 34
e 5 41
e 5 42
e 5 52
e 5 55
e 5 56
e 5 64
e 5 71
e 5 73
e 5 77
e 6 10
e 6 15
e 6 38
e 6 45
e 6 49
e 6 52
e 6 53
e 6 74
e 6 75
e 6 77
e 6 81
e 7 14
e 7 18
e 7 27
e 7 28
e 7 32
e 7 41
e 7 64
e 7 65
e 7 69
e 7 77
e 8 19
e 8 38
e 8 47
e 8 51
e 9 16
e 9 34
e 9 38
e 9 59
e 9 64
e 9 66
e 9 79
e 9 82
e 10 13
e 10 24
e 10 28
e 10 30
e 10 32
e 10 46
e 10 48
e 10 77
e 11 14
e 11 29
e 11 45
e 11 52
e 11 53
e 11 55
e 11 61
e 11 69
e 11 75
e 11 80
e 11 81
e 12 13
e 12 20
e 12 25
e 12 26
e 12 36
e 12 37
e 12 41
e 12 52
e 12 66
e 12 78
e 13 18
e 13 25
e 13 26
e 13 33
e 13 39
e 13 40
e 13 53
e 13 57
e 13 66
e 13 71
e 13 78
e 14 21
e 14 26
e 14 29
e 14 39
e 14 46
e 14 55
e 14 62
e 14 64
e 14 71
e 14 72
e 14 82
e 15 22
e 15 35
e 15 37
e 15 48
e 15 54
e 15 57
e 15 59
e 15 60
e 15 70
e 15 73
e 16 18
e 16 39
e 16 42
e 16 46
e 16 50
e 16 64
e 16 68
e 16 72
e 17 18
e 17 43
e 17 50
e 17 80
e 18 34
e 18 54
e 18 57
e 18 70
e 18 75
e 18 79
e 18 83
e 19 23
e 19 42
e 19 46
e 19 62
e 19 72
e 19 78
e 19 79
e 19 83
e 20 47
e 20 49
e 20 63
e 20 67
e 20 78
e 20 83
e 21 28
e 21 67
e 21 70
e 22 29
e 22 34
e 22 42
e 22 53
e 22 58
e 22 69
e 22 71
e 22 78
e 22 80
e 23 29
e 23 36
e 23 42
e 23 49
e 23 50
e 23 67
e 23 76
e 24 25
e 24 41
e 24 52
e 25 43
e 25 48
e 25 57
e 25 61
e 25 68
e 26 42
e 26 59
e 26 71
e 26 81
e 27 41
e 27 50
e 27 53
e 27 55
e 27 64
e 28 33
e 28 34
e 28 35
e 28 36
e 28 51
e 28 62
e 28 66
e 28 80
e 28 82
e 29 55
e 29 57
e 29 60
e 29 63
e 29 69
e 29 74
e 29 79
e 30 44
e 30 50
e 30 62
e 30 70
e 30 71
e 30 76
e 30 78
e 30 80
e 31 36
e 31 42
e 31 54
e 31 58
e 31 77
e 31 79
e 32 45
e 32 56
e 32 59
e 32 67
e 33 35
e 33 41
e 33 59
e 34 35
e 34 36
e 34 46
e 34 58
e 34 61
e 34 64
e 34 68
e 34 72
e 35 39
e 35 41
e 35 62
e 35 72
e 35 73
e 35 80
e 35 82
e 36 48
e 36 54
e 36 59
e 36 61
e 36 73
e 36 76
e 36 83
e 37 43
e 37 44
e 37 48
e 37 60
e 37 64
e 37 72
e 37 74
e 38 39
e 38 44
e 38 51
e 38 66
e 38 69
e 38 80
e 39 44
e 39 55
e 39 73
e 39 82
e 39 83
e 40 41
e 40 57
e 40 71
e 40 75
e 40 82
e 41 48
e 41 52
e 41 55
e 41 57
e 41 74
e 41 80
e 41 83
e 42 45
e 42 52
e 42 55
e 42 76
e 42 82
e 43 45
e 43 47
e 43 48
e 43 60
e 43 69
e 43 71
e 43 82
e 44 57
e 44 75
e 44 76
e 45 65
e 45 67
e 45 79
e 45 82
e 46 47
e 46 55
e 46 61
e 46 65
e 46 71
e 47 48
e 47 54
e 47 67
e 47 70
e 47 72
e 47 82
e 48 63
e 48 65
e 48 68
e 48 82
e 49 52
e 49 71
e 49 72
e 49 75
e 50 59
e 50 70
e 51 52
e 51 57
e 51 75
e 51 82
e 51 83
e 52 60
e 52 61
e 52 64
e 52 72
e 52 79
e 53 65
e 53 70
e 53 71
e 54 62
e 54 71
e 54 82
e 55 56
e 56 57
e 56 60
e 56 74
e 56 75
e 56 82
e 57 62
e 57 78
e 58 66
e 58 68
e 59 66
e 59 69
e 59 79
e 60 62
e 60 63
e 60 68
e 62 66
e 63 69
e 63 73
e 63 74
e 63 76
e 64 81
e 65 73
e 65 74
e 65 83
e 67 69
e 67 74
e 68 70
e 69 75
e 69 79
e 70 72
e 70 74
e 70 83
e 71 73
e 71 76
e 73 78
e 73 82
e 74 75
e 74 76
e 74 78
e 74 79
e 74 81
e 75 79
e 78 80
